// Numero de sensores
m = 20;
// Coordenadas de los sensores
coordSensor = [<69.53, 34.86>, <58.49, 18.04>, <43.86, 1.19>, <23.68, 84.61>, <37.92, 97.53>, <27.97, 67.92>, <3.23, 0.85>, <79.68, 65.18>, <31.33, 1.09>, <84.53, 88.50>, <77.57, 13.57>, <13.11, 66.33>, <90.22, 60.08>, <57.42, 31.85>, <56.85, 78.71>, <75.71, 8.71>, <51.32, 15.08>, <31.76, 31.07>, <66.07, 92.35>, <44.09, 35.24>];
// Prioridades
P = [5, 9, 3, 10, 2, 1, 0, 3, 1, 1, 5, 6, 1, 2, 6, 4, 4, 2, 8, 7];
// Carga necesaria
F = [106, 43, 96, 57, 38, 116, 168, 88, 115, 168, 124, 127, 114, 198, 27, 25, 193, 107, 7, 132];
